************************************************************************
file with basedata            : j60_51.bas
initial value random generator: 2147269612
************************************************************************
projects                      :  1
jobs (incl. supersource/sink ):  62
horizon                       :  315
RESOURCES
  - renewable                 :  4   R
  - nonrenewable              :  0   N
  - doubly constrained        :  0   D
************************************************************************
PROJECT INFORMATION:
pronr.  #jobs rel.date duedate tardcost  MPM-Time
    1     60      0       72        0       72
************************************************************************
PRECEDENCE RELATIONS:
jobnr.    #modes  #successors   successors
   1        1          3           2   3   4
   2        1          3           6   8  10
   3        1          3           5   7  15
   4        1          3           9  13  18
   5        1          3          30  49  59
   6        1          3          12  32  36
   7        1          3          11  28  34
   8        1          3          19  24  35
   9        1          2          17  52
  10        1          3          21  25  47
  11        1          3          24  26  33
  12        1          3          13  14  20
  13        1          3          40  45  50
  14        1          1          16
  15        1          3          16  22  32
  16        1          3          25  35  39
  17        1          3          31  33  61
  18        1          2          27  28
  19        1          3          38  44  46
  20        1          3          23  29  31
  21        1          3          35  43  46
  22        1          2          29  36
  23        1          3          24  26  41
  24        1          3          25  44  54
  25        1          2          50  60
  26        1          3          39  45  47
  27        1          2          32  48
  28        1          1          47
  29        1          2          37  43
  30        1          3          34  36  46
  31        1          3          34  42  43
  32        1          3          33  38  39
  33        1          1          58
  34        1          1          57
  35        1          1          37
  36        1          2          37  44
  37        1          2          38  40
  38        1          2          41  51
  39        1          3          42  50  56
  40        1          3          42  48  55
  41        1          2          53  60
  42        1          1          54
  43        1          1          45
  44        1          2          58  61
  45        1          1          49
  46        1          3          48  52  55
  47        1          3          49  55  59
  48        1          2          51  53
  49        1          2          51  56
  50        1          2          52  59
  51        1          1          54
  52        1          1          53
  53        1          1          61
  54        1          1          57
  55        1          1          56
  56        1          1          57
  57        1          1          58
  58        1          1          60
  59        1          1          62
  60        1          1          62
  61        1          1          62
  62        1          0        
************************************************************************
REQUESTS/DURATIONS:
jobnr. mode duration  R 1  R 2  R 3  R 4
------------------------------------------------------------------------
  1      1     0       0    0    0    0
  2      1     2       0    8    0    0
  3      1     1       0    4    0    0
  4      1     8       0    7    0    0
  5      1     4       0    4    0    0
  6      1     7       0    9    0    0
  7      1     4       0    0    4    0
  8      1     5       0    0    0   10
  9      1     7       0    0    4    0
 10      1     1       0    4    0    0
 11      1     8       0    0    4    0
 12      1     5       0    0   10    0
 13      1     7       0    0    0    3
 14      1    10       0   10    0    0
 15      1    10       0    0    0    5
 16      1     4       1    0    0    0
 17      1     7       2    0    0    0
 18      1     8       0    7    0    0
 19      1     9       0    0    7    0
 20      1     5       0    6    0    0
 21      1     7       0    0    0    3
 22      1     8       0    0    0    3
 23      1     7       0    0    6    0
 24      1     7       0    0    2    0
 25      1     4       4    0    0    0
 26      1     7       4    0    0    0
 27      1     2       0    5    0    0
 28      1     2       0    0    8    0
 29      1     5       3    0    0    0
 30      1     8       0    8    0    0
 31      1     8       0    0    0   10
 32      1    10       0    0    6    0
 33      1     2       0   10    0    0
 34      1     2       0    7    0    0
 35      1     1       3    0    0    0
 36      1     4       0    0    3    0
 37      1     3       0    0    0    9
 38      1     3       0    0    0    3
 39      1     5       7    0    0    0
 40      1     5       0    7    0    0
 41      1     7       0   10    0    0
 42      1     5       9    0    0    0
 43      1     5       1    0    0    0
 44      1     5       7    0    0    0
 45      1     5       0    0    0    1
 46      1     4       0    1    0    0
 47      1     3       9    0    0    0
 48      1     1       0    0    0    8
 49      1     4       0    3    0    0
 50      1     7       0    0    8    0
 51      1     9       0    0    0    7
 52      1     4       0    0    7    0
 53      1     9       0    7    0    0
 54      1     2       9    0    0    0
 55      1     1       6    0    0    0
 56      1     1       0    0    0    6
 57      1     8       0    8    0    0
 58      1     1       5    0    0    0
 59      1     6       0    6    0    0
 60      1     8       0    0    0    8
 61      1     8      10    0    0    0
 62      1     0       0    0    0    0
************************************************************************
RESOURCEAVAILABILITIES:
  R 1  R 2  R 3  R 4
   23   20   21   16
************************************************************************
Job	#risk	Type	VL	mu	sigma	Type	VL	mu	sigma
3	2	3	0.2	3.75	0.75	6	0.05	7.5	0.375
7	2	4	0.2	5	1	8	0.1	10	1
8	2	1	0.05	1.25	0.0625	5	0.05	6.25	0.3125
16	1	8	0.2	10	2
19	1	3	0.05	3.75	0.1875
22	2	1	0.05	1.25	0.0625	7	0.05	8.75	0.4375
23	2	4	0.2	5	1	8	0.2	10	2
24	1	8	0.1	10	1
29	1	3	0.05	3.75	0.1875
30	1	3	0.05	3.75	0.1875
38	2	5	0.05	6.25	0.3125	7	0.05	8.75	0.4375
40	1	6	0.2	7.5	1.5
41	2	1	0.05	1.25	0.0625	4	0.1	5	0.5
42	2	6	0.05	7.5	0.375	8	0.1	10	1
43	1	5	0.2	6.25	1.25
45	2	2	0.05	2.5	0.125	5	0.2	6.25	1.25
48	2	4	0.2	5	1	5	0.1	6.25	0.625
58	2	5	0.05	6.25	0.3125	6	0.05	7.5	0.375
